SCIP version 5.0.0 [precision: 8 byte] [memory: block] [mode: optimized] [LP solver: NONE] [GitHash: 3bbd232]
Copyright (C) 2002-2017 Konrad-Zuse-Zentrum fuer Informationstechnik Berlin (ZIB)

External codes: 
  Readline EditLine w  GNU library for command line editing (gnu.org/s/readline)
  CppAD 20160000.1     Algorithmic Differentiation of C++ algorithms developed by B. Bell (www.coin-or.org/CppAD)
  ZLIB 1.2.5           General purpose compression library by J. Gailly and M. Adler (zlib.net)
  GMP 6.1.2            GNU Multiple Precision Arithmetic Library developed by T. Granlund (gmplib.org)

user parameter file <scip.set> not found - using default parameters

read problem <../../Split_data/output/breast/1/1_sample_breast.logreg>
============

File name	:	../../Split_data/output/breast/1/1_sample_breast.logreg
Problem name 	:	1_sample_breast
Number of data	:	155
Number of var	:	33
The given data has linear dependence
18 sets of column vector are linearly dependent:
elements are all 0
elements are all 0
elements are all 0
elements are all 0
elements are all 0
elements are all 0

[dim=1] time: 0.002415
[dim=2] time: 0.004409
[dim=3] time: 0.006387
[dim=4] time: 0.008259
[dim=5] time: 0.009987
[dim=6] time: 0.011672
[dim=7] Time of forward = 0.013059sec.
AIC: 144.58
k: 6

[dim=15] time: 0.003245
[dim=14] time: 0.006377
[dim=13] time: 0.009423
[dim=12] time: 0.01193
[dim=11] time: 0.01421
[dim=10] time: 0.016348
[dim=9] time: 0.018015
[dim=8] time: 0.019571
[dim=7] time: 0.020569
[dim=6] time: 0.021319
[dim=5] Time of backward = 0.021923sec.
AIC: 144.58
k: 6
